(set-info :smt-lib-version 2.6)
(set-logic QF_UFLRA)
(set-info :source |
MathSat group

|)
(set-info :category "random")
(set-info :status sat)
(declare-fun f0_1 (Real) Real)
(declare-fun f0_2 (Real Real) Real)
(declare-fun f0_3 (Real Real Real) Real)
(declare-fun f0_4 (Real Real Real Real) Real)
(declare-fun f1_1 (Real) Real)
(declare-fun f1_2 (Real Real) Real)
(declare-fun f1_3 (Real Real Real) Real)
(declare-fun f1_4 (Real Real Real Real) Real)
(declare-fun x0 () Real)
(declare-fun x1 () Real)
(declare-fun x2 () Real)
(declare-fun x3 () Real)
(declare-fun x4 () Real)
(declare-fun x5 () Real)
(declare-fun x6 () Real)
(declare-fun x7 () Real)
(declare-fun x8 () Real)
(declare-fun x9 () Real)
(declare-fun x10 () Real)
(declare-fun x11 () Real)
(declare-fun x12 () Real)
(declare-fun x13 () Real)
(declare-fun x14 () Real)
(declare-fun x15 () Real)
(declare-fun x16 () Real)
(declare-fun x17 () Real)
(declare-fun x18 () Real)
(declare-fun x19 () Real)
(declare-fun x20 () Real)
(declare-fun x21 () Real)
(declare-fun x22 () Real)
(declare-fun x23 () Real)
(declare-fun x24 () Real)
(declare-fun x25 () Real)
(declare-fun x26 () Real)
(declare-fun x27 () Real)
(declare-fun x28 () Real)
(declare-fun x29 () Real)
(declare-fun x30 () Real)
(declare-fun x31 () Real)
(declare-fun x32 () Real)
(declare-fun x33 () Real)
(declare-fun x34 () Real)
(declare-fun x35 () Real)
(declare-fun x36 () Real)
(declare-fun x37 () Real)
(declare-fun x38 () Real)
(declare-fun x39 () Real)
(declare-fun P0 () Bool)
(declare-fun P1 () Bool)
(declare-fun P2 () Bool)
(declare-fun P3 () Bool)
(declare-fun P4 () Bool)
(declare-fun P5 () Bool)
(declare-fun P6 () Bool)
(declare-fun P7 () Bool)
(declare-fun P8 () Bool)
(declare-fun P9 () Bool)
(declare-fun P10 () Bool)
(declare-fun P11 () Bool)
(declare-fun P12 () Bool)
(declare-fun P13 () Bool)
(declare-fun P14 () Bool)
(declare-fun P15 () Bool)
(declare-fun P16 () Bool)
(declare-fun P17 () Bool)
(declare-fun P18 () Bool)
(declare-fun P19 () Bool)
(declare-fun P20 () Bool)
(declare-fun P21 () Bool)
(declare-fun P22 () Bool)
(declare-fun P23 () Bool)
(declare-fun P24 () Bool)
(declare-fun P25 () Bool)
(declare-fun P26 () Bool)
(declare-fun P27 () Bool)
(declare-fun P28 () Bool)
(declare-fun P29 () Bool)
(declare-fun P30 () Bool)
(declare-fun P31 () Bool)
(declare-fun P32 () Bool)
(declare-fun P33 () Bool)
(declare-fun P34 () Bool)
(declare-fun P35 () Bool)
(declare-fun P36 () Bool)
(declare-fun P37 () Bool)
(declare-fun P38 () Bool)
(declare-fun P39 () Bool)
(assert (let ((?v_28 (f0_1 x14)) (?v_191 (- (+ (* 19 x22) (* 9 x29)) (* 17 x16))) (?v_6 (f0_1 x38)) (?v_25 (f1_2 x39 x37)) (?v_12 (f0_1 x32)) (?v_10 (- (+ (* 4 x28) (* 25 x34)) (* 5 x29))) (?v_4 (f1_2 x26 x14)) (?v_3 (f0_2 x8 x32))) (let ((?v_9 (f1_1 ?v_25)) (?v_19 (f0_1 x1)) (?v_37 (f0_2 x34 ?v_10)) (?v_118 (f0_1 x3)) (?v_11 (f0_1 x26)) (?v_16 (* 7 ?v_10))) (let ((?v_162 (- (+ (* 2 x35) ?v_16) (* 28 x31))) (?v_280 (f0_1 x17)) (?v_64 (f1_1 x1)) (?v_0 (- (+ (* 14 x33) (* 11 x30)) (* 22 x22))) (?v_13 (* 24 x39)) (?v_168 (- (- (* 4 ?v_4) (* 28 ?v_9)) (* 6 x14))) (?v_55 (f1_2 x39 x3))) (let ((?v_300 (f1_1 ?v_55)) (?v_54 (f0_1 x9)) (?v_69 (- (+ (* 11 ?v_37) (* 8 (f1_2 (f0_1 x2) x2))) (* 11 x14))) (?v_71 (- (+ (* 6 x20) (* 15 x8)) (* 28 x35))) (?v_58 (- (+ (* 22 x15) (* 5 x30)) (* 27 x6))) (?v_47 (f0_1 x21)) (?v_190 (f0_1 x7)) (?v_20 (f0_1 x18)) (?v_65 (- (- (* 7 x8) (* 26 x36)) (* 3 x21))) (?v_89 (+ (- (* 16 x38) (* 6 x18)) (* 4 x3))) (?v_79 (+ (- (* 3 ?v_3) (* 16 ?v_0)) (* 20 x27))) (?v_357 (f0_1 x0)) (?v_213 (f0_2 ?v_0 x37)) (?v_128 (f0_2 x29 x1))) (let ((?v_73 (f0_2 ?v_47 x18)) (?v_57 (f0_2 x28 x4)) (?v_8 (f0_1 ?v_0)) (?v_101 (+ (- (* 21 x35) (* 27 x22)) (* 16 x6))) (?v_175 (f1_2 x9 x27)) (?v_229 (* 8 x25)) (?v_172 (f0_1 x23)) (?v_83 (f0_1 ?v_25)) (?v_40 (f0_2 x39 x20)) (?v_112 (f1_1 ?v_19)) (?v_158 (< ?v_71 7))) (let ((?v_391 (< ?v_112 13)) (?v_211 (= x11 ?v_6)) (?v_407 (< ?v_83 3)) (?v_109 (= ?v_79 x39)) (?v_390 (< ?v_58 19)) (?v_34 (= ?v_175 (f1_1 x16))) (?v_245 (< ?v_175 18)) (?v_249 (= ?v_190 ?v_191)) (?v_312 (< x30 1)) (?v_341 (< ?v_58 21)) (?v_150 (< ?v_3 4)) (?v_113 (< (f1_1 x18) 27)) (?v_22 (= ?v_19 ?v_20)) (?v_315 (< x32 11)) (?v_29 (< ?v_57 16)) (?v_342 (= x5 x25)) (?v_209 (< (f1_1 x26) 19)) (?v_399 (< x1 8)) (?v_23 (< ?v_4 0)) (?v_164 (= (f0_2 x9 x10) ?v_73)) (?v_147 (< ?v_11 24)) (?v_337 (< ?v_213 19)) (?v_381 (< x34 10)) (?v_289 (< x25 11)) (?v_53 (< ?v_112 8)) (?v_129 (< ?v_19 15)) (?v_387 (< x24 28)) (?v_365 (< ?v_89 21)) (?v_392 (< ?v_55 6)) (?v_325 (< ?v_19 9)) (?v_21 (< ?v_69 24)) (?v_144 (< x11 19)) (?v_77 (< x26 22)) (?v_99 (= ?v_8 x12)) (?v_177 (< ?v_65 9)) (?v_27 (< (f1_1 ?v_6) 5)) (?v_383 (< ?v_118 6)) (?v_214 (= x34 x8)) (?v_132 (< ?v_55 27)) (?v_169 (= ?v_19 x6)) (?v_140 (< x29 10)) (?v_374 (< ?v_357 2)) (?v_406 (< x20 16)) (?v_24 (< (f1_2 x9 ?v_11) 12)) (?v_130 (not P17)) (?v_80 (not P13)) (?v_274 (not P25)) (?v_235 (not P30)) (?v_56 (not (< x34 1)))) (let ((?v_323 (not ?v_99)) (?v_208 (not ?v_158)) (?v_233 (not P35)) (?v_277 (not P34)) (?v_396 (not ?v_315)) (?v_160 (not P26)) (?v_184 (not ?v_21)) (?v_364 (not ?v_23)) (?v_100 (not ?v_209)) (?v_287 (not ?v_365)) (?v_122 (not ?v_140)) (?v_167 (not P20)) (?v_248 (not ?v_29)) (?v_262 (not P12)) (?v_52 (not ?v_337)) (?v_108 (not ?v_53)) (?v_161 (not (< ?v_40 25))) (?v_179 (not P6)) (?v_286 (not P14)) (?v_138 (not P24)) (?v_234 (not P22)) (?v_124 (not P39)) (?v_111 (not P16)) (?v_220 (not P29)) (?v_91 (not P31)) (?v_253 (not P37)) (?v_256 (not P11)) (?v_268 (not P33)) (?v_393 (not ?v_312)) (?v_332 (not ?v_129)) (?v_317 (not ?v_22)) (?v_335 (not ?v_374)) (?v_202 (not ?v_147)) (?v_294 (not ?v_392)) (?v_217 (not ?v_383)) (?v_251 (not ?v_164)) (?v_215 (not P38)) (?v_418 (not P32)) (?v_230 (not ?v_245)) (?v_321 (not ?v_177)) (?v_180 (not (= x2 x20))) (?v_219 (not P23)) (?v_402 (not ?v_214)) (?v_322 (not P10)) (?v_394 (not ?v_399)) (?v_279 (not P36)) (?v_339 (not ?v_390)) (?v_403 (not ?v_249)) (?v_302 (not P7)) (?v_359 (not P19)) (?v_313 (not P9)) (?v_330 (not (< ?v_280 19))) (?v_316 (not P5)) (?v_376 (not P8)) (?v_384 (not ?v_27)) (?v_14 (+ (- (* 7 x4) (* 8 x30)) x24)) (?v_44 (+ (* 3 ?v_6) (* 7 ?v_28) (* 4 ?v_9)))) (let ((?v_32 (+ (* 7 (f1_2 x25 x26)) (* 7 ?v_6) (* 21 ?v_44)))) (let ((?v_92 (< ?v_32 19)) (?v_296 (+ (* 18 x10) (* 27 x25) (* 27 x32))) (?v_31 (+ (* 4 ?v_168) (* 5 ?v_3) (* 6 (f1_2 (f0_1 x11) ?v_10))))) (let ((?v_349 (< ?v_31 22)) (?v_148 (f1_2 x16 (+ (* 14 x18) (* 7 x12) (* 6 x25))))) (let ((?v_85 (= ?v_148 ?v_14)) (?v_67 (- (- ?v_12 (* 24 ?v_54)) (* 11 ?v_65))) (?v_70 (+ (* 6 x26) (* 27 x21) (* 6 x10))) (?v_156 (= ?v_32 ?v_9))) (let ((?v_293 (not (< ?v_67 24))) (?v_120 (< ?v_32 29))) (let ((?v_308 (not ?v_120)) (?v_119 (not ?v_85)) (?v_155 (not ?v_92)) (?v_351 (+ (* 16 ?v_12) (* 27 ?v_64) (* 20 ?v_9))) (?v_269 (not ?v_156)) (?v_222 (= ?v_14 (f1_1 x5))) (?v_370 (< ?v_31 26))) (let ((?v_369 (not ?v_222)) (?v_1 (- (+ (* (- 5) x11) (* 26 x6)) (* 22 x34)))) (let ((?v_285 (= ?v_79 ?v_1))) (let ((?v_388 (not ?v_285)) (?v_103 (< ?v_8 (- 9))) (?v_362 (+ (- (* (- 20) x37) (* 21 x11)) (* 10 x24)))) (let ((?v_49 (= ?v_362 (f0_1 x35))) (?v_18 (+ (- (* (- 29) x2) (* 5 ?v_64)) (* 19 ?v_1)))) (let ((?v_39 (= ?v_18 ?v_14)) (?v_2 (+ (* (- 22) x33) (* 4 x22) (* 27 x4)))) (let ((?v_265 (< ?v_2 2)) (?v_33 (< ?v_191 (- 18))) (?v_5 (+ (* (- 9) x25) (* 17 x2) (* 15 x13)))) (let ((?v_7 (f0_1 ?v_5))) (let ((?v_126 (< (f0_1 ?v_7) (- 1))) (?v_116 (= ?v_2 ?v_3))) (let ((?v_417 (not ?v_116)) (?v_367 (< x30 (- 13)))) (let ((?v_267 (not ?v_367)) (?v_133 (< ?v_20 (- 18))) (?v_90 (< ?v_4 (- 14)))) (let ((?v_243 (not ?v_90)) (?v_72 (< x28 (- 3))) (?v_170 (- (- (* (- 19) x9) (* 20 ?v_5)) (* 3 x7)))) (let ((?v_68 (- (+ ?v_16 (* 3 ?v_170)) (* 29 ?v_19)))) (let ((?v_78 (< ?v_68 24)) (?v_236 (< ?v_73 (- 11))) (?v_115 (< x33 (- 8))) (?v_246 (< (f1_1 x36) (- 29))) (?v_38 (f0_2 ?v_7 (f0_2 x9 x26)))) (let ((?v_46 (< ?v_38 (- 2)))) (let ((?v_97 (not ?v_46)) (?v_151 (< ?v_296 (- 20))) (?v_36 (< x23 (- 16))) (?v_43 (< ?v_190 (- 19))) (?v_187 (- (- (* (- 4) x22) (* 7 x2)) ?v_13)) (?v_50 (+ (* (- 17) x35) (* 5 x25) (* 17 x37)))) (let ((?v_223 (= ?v_187 ?v_50)) (?v_15 (+ (* (- 19) x26) (* 2 x29) (* 6 x22)))) (let ((?v_17 (f1_2 x14 ?v_15))) (let ((?v_266 (< ?v_17 (- 2)))) (let ((?v_414 (not ?v_266)) (?v_26 (+ (- (* (- 10) x4) (* 17 x24)) (* 23 x23)))) (let ((?v_104 (< ?v_26 (- 17))) (?v_88 (< ?v_12 (- 11)))) (let ((?v_98 (not ?v_88)) (?v_178 (- (+ (* (- 8) x16) (* 2 x6)) (* 3 x0)))) (let ((?v_81 (= ?v_11 ?v_178)) (?v_201 (< (f1_2 x21 x15) (- 15)))) (let ((?v_145 (not ?v_201)) (?v_244 (< (f1_2 x9 x6) (- 14)))) (let ((?v_135 (not ?v_244)) (?v_95 (< ?v_12 (- 21))) (?v_76 (- (- (* 8 x23) (* 19 ?v_2)) ?v_13))) (let ((?v_379 (< ?v_76 28))) (let ((?v_35 (not ?v_379)) (?v_60 (< ?v_15 16)) (?v_200 (< (+ (- (* (- 9) ?v_67) (* 7 ?v_162)) (* 26 x13)) (- 24))) (?v_183 (< ?v_17 (- 22)))) (let ((?v_239 (not ?v_183)) (?v_62 (- (- (* (- 17) x38) (* 29 x37)) (* 5 x32)))) (let ((?v_181 (= ?v_62 ?v_40))) (let ((?v_30 (not ?v_181)) (?v_204 (f0_2 ?v_18 ?v_101))) (let ((?v_336 (= ?v_7 ?v_204))) (let ((?v_114 (not ?v_336)) (?v_74 (= ?v_25 ?v_26)) (?v_105 (< ?v_70 (- 8)))) (let ((?v_273 (not ?v_105)) (?v_59 (< ?v_28 (- 25))) (?v_86 (< ?v_31 (- 29)))) (let ((?v_257 (not ?v_86)) (?v_96 (= (+ (- (* 9 x4) (* 27 ?v_26)) (* 14 ?v_118)) x20))) (let ((?v_41 (not ?v_96)) (?v_123 (+ (* (- 6) x33) (* 15 x21) (* 6 x12)))) (let ((?v_45 (< ?v_123 (- 26))) (?v_141 (< (f1_2 ?v_7 (f0_1 ?v_37)) (- 10))) (?v_42 (+ (* (- 5) x19) (* 27 ?v_38) (* 26 ?v_5)))) (let ((?v_139 (= ?v_42 ?v_172))) (let ((?v_198 (not ?v_139)) (?v_127 (not ?v_39)) (?v_276 (< ?v_42 (- 24)))) (let ((?v_272 (not ?v_276)) (?v_142 (< ?v_44 (- 24))) (?v_134 (= ?v_38 ?v_15)) (?v_61 (+ (- (* (- 27) x36) (* 14 x39)) (* 8 x14)))) (let ((?v_48 (< ?v_61 18)) (?v_51 (< ?v_47 (- 4))) (?v_82 (< ?v_300 (- 29)))) (let ((?v_107 (not ?v_48)) (?v_63 (+ (* 4 ?v_50) (* 24 (f1_1 x38)) (* 2 (f1_1 x21))))) (let ((?v_355 (not (< ?v_63 6))) (?v_261 (< x9 (- 1)))) (let ((?v_102 (not ?v_261)) (?v_264 (< x24 (- 16)))) (let ((?v_84 (not ?v_264)) (?v_136 (not ?v_51)) (?v_87 (not ?v_43)) (?v_227 (not (< ?v_54 (- 1)))) (?v_143 (< ?v_40 (- 18))) (?v_66 (< ?v_57 (- 22)))) (let ((?v_231 (not ?v_66)) (?v_326 (= ?v_17 ?v_58)) (?v_298 (< ?v_61 (- 10))) (?v_255 (- (+ (* (- 4) ?v_63) (* 23 ?v_64)) (* 11 ?v_128)))) (let ((?v_174 (= ?v_62 ?v_255))) (let ((?v_242 (not ?v_174)) (?v_75 (+ (- (* (- 15) x15) (* 29 x6)) (* 21 x36)))) (let ((?v_146 (< (+ (- (* (- 12) x29) (* 8 ?v_75)) (* 7 ?v_65)) (- 7))) (?v_131 (not (< ?v_6 (- 14)))) (?v_206 (+ (- (* 25 ?v_64) (* 22 ?v_68)) (* 17 ?v_69)))) (let ((?v_205 (not (< ?v_206 (- 5)))) (?v_303 (< ?v_25 (- 17))) (?v_163 (< ?v_70 (- 20))) (?v_360 (< ?v_71 (- 24))) (?v_254 (< (+ (* (- 10) x26) (* 6 x1) (* 16 x2)) (- 1))) (?v_291 (< ?v_71 (- 8)))) (let ((?v_93 (not ?v_291)) (?v_110 (< x2 (- 29)))) (let ((?v_283 (not ?v_110)) (?v_412 (not ?v_74)) (?v_196 (< ?v_75 (- 20))) (?v_137 (< ?v_76 (- 2))) (?v_373 (not ?v_81)) (?v_149 (< ?v_83 (- 14))) (?v_338 (< ?v_61 (- 25)))) (let ((?v_106 (not ?v_338)) (?v_195 (< ?v_89 (- 9)))) (let ((?v_176 (not ?v_195)) (?v_94 (< ?v_6 (- 5))) (?v_221 (not ?v_78)) (?v_117 (< x17 (- 20))) (?v_320 (< ?v_101 (- 14)))) (let ((?v_121 (not ?v_320)) (?v_328 (< x32 (- 19))) (?v_218 (+ (- (* (- 24) x1) (* 6 x29)) (* 7 x3)))) (let ((?v_299 (= ?v_218 ?v_75))) (let ((?v_333 (not ?v_299)) (?v_125 (< x36 (- 22)))) (let ((?v_371 (not ?v_125)) (?v_319 (not ?v_117)) (?v_154 (= (+ (* (- 17) (- (+ (* (- 22) ?v_118) (* 15 x39)) (* 5 x21))) (* 23 ?v_0) (* 14 x1)) ?v_1)) (?v_157 (= (f1_2 x29 x21) ?v_7)) (?v_225 (- (- ?v_229 (* 22 x17)) (* 14 ?v_75)))) (let ((?v_232 (= ?v_225 ?v_351)) (?v_324 (= ?v_67 ?v_50))) (let ((?v_165 (not ?v_324)) (?v_153 (< ?v_123 0)) (?v_275 (not ?v_59)) (?v_171 (< ?v_280 (- 25))) (?v_210 (< ?v_128 (- 3))) (?v_182 (< (f1_2 x0 x31) (- 11))) (?v_166 (not ?v_142)) (?v_185 (not ?v_134)) (?v_413 (not ?v_143)) (?v_368 (not ?v_146)) (?v_152 (< ?v_148 (- 14))) (?v_192 (+ (- (* (- 7) x33) (* 2 x7)) (* 4 x27)))) (let ((?v_203 (< ?v_192 (- 11))) (?v_193 (not ?v_151)) (?v_288 (< (- (+ (* (- 22) x8) (* 18 x29)) (* 19 x15)) (- 29))) (?v_173 (not ?v_152)) (?v_250 (< (+ (- (* 13 x22) (* 11 x39)) (* 16 ?v_18)) 8))) (let ((?v_304 (not ?v_250)) (?v_159 (< ?v_3 (- 25))) (?v_188 (+ (* (- 24) x4) (* 12 x36) (* 21 x32)))) (let ((?v_389 (= ?v_188 ?v_19))) (let ((?v_284 (not ?v_389)) (?v_345 (not ?v_153)) (?v_386 (< ?v_162 (- 20)))) (let ((?v_258 (not ?v_386)) (?v_329 (< ?v_148 (- 18))) (?v_212 (< (f1_1 x31) (- 1))) (?v_216 (< x15 (- 25))) (?v_307 (= ?v_38 ?v_168)) (?v_197 (< (+ (- (* 23 ?v_6) (* 5 x35)) (* 20 (- (- (* (- 25) ?v_63) (* 3 ?v_9)) (* 29 x24)))) (- 7))) (?v_415 (< ?v_170 1))) (let ((?v_271 (not ?v_415)) (?v_189 (not ?v_171)) (?v_352 (< ?v_8 (- 29))) (?v_278 (= ?v_172 ?v_50))) (let ((?v_194 (not ?v_278)) (?v_252 (< ?v_17 (- 10)))) (let ((?v_199 (not ?v_252)) (?v_186 (= x5 ?v_178)) (?v_409 (< ?v_68 18))) (let ((?v_207 (not ?v_409)) (?v_310 (not ?v_182)) (?v_292 (not ?v_82)) (?v_240 (< ?v_175 (- 24))) (?v_301 (< ?v_187 (- 10))) (?v_247 (- (- (* (- 28) x15) (* 6 ?v_26)) (* 26 ?v_188)))) (let ((?v_353 (< ?v_247 (- 3))) (?v_241 (= ?v_192 ?v_89)) (?v_398 (not ?v_104)) (?v_411 (not (< (f1_1 x39) (- 19)))) (?v_343 (< ?v_204 (- 11)))) (let ((?v_297 (not ?v_343)) (?v_224 (< ?v_206 (- 15))) (?v_281 (< ?v_170 (- 12))) (?v_372 (not ?v_149)) (?v_331 (< ?v_213 (- 10))) (?v_354 (< (+ (- (* (- 22) x7) (* 12 x17)) (* 27 x12)) (- 7)))) (let ((?v_305 (not ?v_354)) (?v_226 (< ?v_218 (- 3))) (?v_375 (not ?v_223)) (?v_366 (< ?v_225 20))) (let ((?v_228 (not ?v_226)) (?v_259 (not ?v_212)) (?v_237 (= ?v_1 ?v_162)) (?v_408 (< ?v_26 11)) (?v_238 (- (+ (* (- 3) x16) ?v_229) (* 27 x9)))) (let ((?v_295 (< ?v_238 (- 12)))) (let ((?v_263 (not ?v_295)) (?v_282 (not ?v_133)) (?v_270 (< x0 (- 20))) (?v_290 (not ?v_232)) (?v_309 (not ?v_236)) (?v_260 (< ?v_238 (- 5))) (?v_347 (not ?v_103)) (?v_385 (not (< ?v_247 (- 5)))) (?v_348 (not ?v_163)) (?v_410 (not ?v_254)) (?v_340 (< ?v_255 (- 20)))) (let ((?v_350 (not ?v_260)) (?v_311 (not ?v_210)) (?v_314 (< ?v_57 (- 3))) (?v_363 (not ?v_265)) (?v_378 (not ?v_186)) (?v_334 (< ?v_68 (- 26)))) (let ((?v_306 (not ?v_334)) (?v_377 (not ?v_36)) (?v_346 (not ?v_298)) (?v_358 (< ?v_300 (- 4))) (?v_327 (not ?v_301)) (?v_318 (< ?v_192 15)) (?v_356 (< (f0_2 ?v_83 ?v_38) 10)) (?v_344 (not ?v_328))) (let ((?v_380 (not ?v_318)) (?v_405 (not (< ?v_89 (- 5)))) (?v_420 (not ?v_237)) (?v_361 (< (f0_2 x29 x32) (- 19))) (?v_404 (< ?v_351 (- 7))) (?v_416 (not ?v_353)) (?v_397 (< ?v_357 (- 26))) (?v_401 (= ?v_362 ?v_38)) (?v_382 (not ?v_281)) (?v_400 (not ?v_356)) (?v_395 (not ?v_72)) (?v_419 (not ?v_33))) (and (and (and (and (and (and (and (and (and (and (and (and (and (and (and (and (and (and (and (and (and (and (and (and (and (and (and (and (and (and (and (and (and (and (and (and (and (and (and (and (and (and (and (and (and (and (and (and (and (and (and (and (and (and (and (and (and (and (and (and (and (and (and (and (and (and (and (and (and (and (and (and (and (and (and (and (and (and (and (and (and (and (and (and (and (and (and (and (and (and (and (and (and (and (and (and (and (and (and (and (and (and (and (and (and (and (and (and (and (and (and (and (and (and (and (and (and (and (and (and (and (and (and (and (and (and (and (and (and (and (and (and (and (and (and (and (and (and (and (and (and (and (and (and (and (and (and (and (and (and (and (and (and (and (and (and (and (and (and (and (and (and (and (and (and (and (and (and (and (and (and (and (and (and (and (and (and (and (and (and (and (and (and (and (and (and (and (and (and (and (and (and (and (and (and (and (and (and (and (and (and (and (and (and (and (and (and (and (and (and (and (and (and (and (and (and (and (and (and (and (and (and (and (and (and (and (and (and (and (and (and (and (and (and (and (and (and (and (and (and (and (and (and (and (and (and (and (and (and (and (and (and (and (and (and (and (and (and (and (and (and (and (and (and (and (and (and (and (and (and (and (and (and (and (and (and (and (and (and (and (and (and (and (and (and (and (and (and (and (and (and (and (and (and (and (and (and (and (and (and (and (and (and (and (and (and (and (and (and (and (and (and (and (and (and (and (and (and (and (and (and (and (and (and (and (and (and (and (and (and (and (and (and (and (and (and (and (and (and (and (and (and (and (and (and (and (and (and (and (and (and (and (and (and (and (and (and (and (and (and (and (and (and (and (and (and (and (and (and (and (and (and (and (and (and (and (and (and (and (and (and (and (and (and (and (and (and (and (and (and (and (and (and (and (and (and (and (and (and (or (or ?v_388 ?v_103) ?v_49) (or (or ?v_130 P25) ?v_39)) (or (or ?v_80 ?v_265) P10)) (or (or ?v_33 ?v_126) ?v_417)) (or (or P0 ?v_23) ?v_274)) (or (or P12 ?v_267) ?v_133)) (or (or ?v_243 ?v_235) ?v_72)) (or (or P0 ?v_78) ?v_236)) (or (or (not ?v_115) ?v_56) (not ?v_246))) (or (or ?v_92 ?v_97) ?v_151)) (or (or ?v_36 P2) ?v_43)) (or (or ?v_147 ?v_223) ?v_414)) (or (or ?v_34 ?v_323) ?v_104)) (or (or ?v_208 ?v_233) ?v_349)) (or (or P31 ?v_98) ?v_81)) (or (or ?v_145 ?v_135) (not ?v_95))) (or (or ?v_277 ?v_29) P14)) (or (or ?v_35 ?v_85) ?v_60)) (or (or ?v_200 (not ?v_144)) ?v_21)) (or (or ?v_396 ?v_160) ?v_239)) (or (or ?v_30 ?v_114) ?v_22)) (or (or ?v_27 ?v_24) ?v_184)) (or (or ?v_341 P16) ?v_22)) (or (or ?v_364 ?v_169) ?v_100)) (or (or ?v_287 ?v_24) ?v_122)) (or (or ?v_74 ?v_27) ?v_167)) (or (or P29 ?v_381) ?v_273)) (or (or ?v_59 ?v_248) ?v_24)) (or (or ?v_29 ?v_406) ?v_30)) (or (or ?v_129 ?v_257) ?v_262)) (or (or ?v_41 ?v_156) ?v_33)) (or (or ?v_52 ?v_34) ?v_35)) (or (or ?v_108 ?v_36) P3)) (or (or ?v_45 ?v_141) ?v_198)) (or (or ?v_127 ?v_161) ?v_41)) (or (or ?v_272 ?v_43) (not ?v_34))) (or (or ?v_142 (not ?v_407)) ?v_45)) (or (or ?v_134 ?v_48) ?v_46)) (or (or ?v_179 ?v_51) ?v_113)) (or (or ?v_46 ?v_82) P10)) (or (or ?v_107 (not ?v_49)) ?v_355)) (or (or P26 ?v_286) ?v_102)) (or (or ?v_84 ?v_136) ?v_138)) (or (or ?v_52 ?v_87) ?v_53)) (or (or ?v_227 ?v_143) (< ?v_55 (- 23)))) (or (or ?v_234 ?v_56) ?v_231)) (or (or ?v_326 ?v_59) P12)) (or (or ?v_56 P11) ?v_60)) (or (or ?v_56 ?v_23) ?v_124)) (or (or ?v_298 ?v_242) ?v_146)) (or (or ?v_24 ?v_111) ?v_66)) (or (or P38 ?v_293) ?v_220)) (or (or ?v_325 (not ?v_77)) ?v_131)) (or (or ?v_205 (not ?v_303)) (not (< x37 (- 23))))) (or (or P27 ?v_163) ?v_360)) (or (or ?v_72 ?v_254) ?v_164)) (or (or ?v_23 ?v_93) ?v_283)) (or (or ?v_412 ?v_91) ?v_308)) (or (or ?v_196 ?v_137) ?v_77)) (or (or ?v_78 ?v_53) ?v_109)) (or (or ?v_80 ?v_373) P15)) (or (or ?v_82 ?v_149) ?v_84)) (or (or P5 ?v_119) ?v_86)) (or (or ?v_87 ?v_106) ?v_88)) (or (or ?v_81 ?v_176) ?v_90)) (or (or ?v_94 ?v_91) ?v_155)) (or (or ?v_93 ?v_94) ?v_221)) (or (or ?v_95 ?v_117) ?v_41)) (or (or ?v_96 ?v_97) ?v_98)) (or (or ?v_99 ?v_100) ?v_121)) (or (or ?v_328 ?v_102) P9)) (or (or ?v_103 ?v_104) ?v_105)) (or (or ?v_333 ?v_106) ?v_107)) (or (or ?v_108 ?v_109) ?v_211)) (or (or P25 ?v_110) ?v_30)) (or (or P4 ?v_111) ?v_391)) (or (or ?v_22 ?v_113) P30)) (or (or ?v_84 ?v_253) ?v_114)) (or (or ?v_115 ?v_29) ?v_387)) (or (or (not ?v_342) ?v_371) ?v_116)) (or (or ?v_319 ?v_150) ?v_154)) (or (or ?v_157 ?v_232) (not (< ?v_10 (- 12))))) (or (or (not P21) ?v_119) (= ?v_54 (+ (- (* 16 x34) (* 18 x1)) (* 9 x20))))) (or (or ?v_132 P24) ?v_256)) (or (or ?v_268 ?v_393) ?v_120)) (or (or P34 ?v_78) ?v_165)) (or (or ?v_121 ?v_53) ?v_122)) (or (or ?v_153 ?v_93) ?v_124)) (or (or ?v_125 ?v_275) ?v_177)) (or (or ?v_126 ?v_171) ?v_127)) (or (or ?v_210 P3) ?v_332)) (or (or ?v_95 P36) ?v_130)) (or (or ?v_182 ?v_131) (not ?v_113))) (or (or ?v_113 ?v_74) ?v_132)) (or (or ?v_48 P7) ?v_133)) (or (or ?v_134 ?v_135) (not (< x15 (- 23))))) (or (or ?v_136 ?v_137) ?v_317)) (or (or ?v_138 P13) ?v_139)) (or (or P30 ?v_140) ?v_335)) (or (or ?v_141 ?v_166) ?v_185)) (or (or ?v_110 ?v_413) ?v_144)) (or (or P1 ?v_145) ?v_368)) (or (or ?v_147 ?v_85) ?v_152)) (or (or ?v_203 ?v_93) (not ?v_94))) (or (or ?v_202 ?v_149) ?v_150)) (or (or ?v_193 ?v_121) ?v_77)) (or (or P29 ?v_144) ?v_294)) (or (or (not ?v_288) ?v_114) ?v_173)) (or (or ?v_153 ?v_98) ?v_304)) (or (or ?v_117 P26) ?v_121)) (or (or ?v_154 ?v_155) ?v_130)) (or (or P29 ?v_33) ?v_269)) (or (or ?v_157 ?v_156) ?v_158)) (or (or ?v_159 ?v_159) ?v_33)) (or (or ?v_109 ?v_284) ?v_160)) (or (or ?v_345 ?v_217) ?v_111)) (or (or ?v_161 ?v_258) P5)) (or (or ?v_163 P2) ?v_91)) (or (or ?v_251 ?v_329) ?v_165)) (or (or ?v_33 ?v_166) ?v_212)) (or (or ?v_144 ?v_167) ?v_48)) (or (or ?v_215 (not ?v_216)) (not ?v_109))) (or (or ?v_418 (not ?v_307)) ?v_197)) (or (or ?v_169 ?v_80) ?v_271)) (or (or ?v_114 ?v_189) ?v_352)) (or (or ?v_194 P8) ?v_199)) (or (or ?v_173 ?v_174) ?v_230)) (or (or ?v_176 ?v_321) ?v_180)) (or (or ?v_157 P24) ?v_186)) (or (or ?v_179 ?v_207) ?v_96)) (or (or ?v_36 ?v_45) ?v_180)) (or (or ?v_115 ?v_181) ?v_310)) (or (or ?v_183 ?v_292) (not ?v_240))) (or (or P3 ?v_184) P38)) (or (or ?v_185 ?v_186) ?v_301)) (or (or ?v_353 ?v_189) ?v_249)) (or (or ?v_147 ?v_241) ?v_398)) (or (or ?v_193 ?v_194) ?v_195)) (or (or ?v_81 (not ?v_196)) P5)) (or (or (not ?v_197) ?v_78) ?v_198)) (or (or ?v_194 ?v_156) ?v_219)) (or (or ?v_22 ?v_24) ?v_222)) (or (or ?v_91 ?v_402) ?v_199)) (or (or ?v_72 ?v_82) P18)) (or (or ?v_113 ?v_411) ?v_195)) (or (or ?v_200 ?v_201) P15)) (or (or ?v_202 ?v_179) ?v_203)) (or (or ?v_169 ?v_297) ?v_322)) (or (or ?v_66 ?v_205) ?v_125)) (or (or ?v_114 (not ?v_224)) ?v_207)) (or (or ?v_208 ?v_22) ?v_281)) (or (or ?v_155 ?v_209) ?v_210)) (or (or (not ?v_211) ?v_394) ?v_137)) (or (or ?v_144 ?v_130) ?v_158)) (or (or ?v_173 ?v_372) ?v_212)) (or (or ?v_331 ?v_214) ?v_165)) (or (or ?v_139 ?v_98) ?v_305)) (or (or ?v_43 ?v_99) ?v_33)) (or (or ?v_215 ?v_216) ?v_146)) (or (or ?v_279 ?v_217) ?v_226)) (or (or (not ?v_169) ?v_219) ?v_220)) (or (or P8 ?v_221) ?v_98)) (or (or ?v_222 ?v_99) ?v_375)) (or (or ?v_224 (not ?v_366)) ?v_156)) (or (or ?v_228 ?v_52) ?v_159)) (or (or ?v_259 ?v_163) ?v_52)) (or (or ?v_77 ?v_87) ?v_227)) (or (or ?v_237 ?v_370) ?v_138)) (or (or ?v_228 ?v_408) ?v_119)) (or (or P19 ?v_263) ?v_120)) (or (or ?v_134 ?v_230) ?v_282)) (or (or (not ?v_270) ?v_231) P15)) (or (or ?v_290 ?v_160) ?v_233)) (or (or ?v_234 ?v_235) ?v_309)) (or (or ?v_339 ?v_237) ?v_260)) (or (or ?v_239 ?v_240) ?v_109)) (or (or ?v_72 ?v_241) ?v_131)) (or (or ?v_160 ?v_160) ?v_242)) (or (or ?v_113 ?v_215) ?v_243)) (or (or ?v_233 ?v_347) ?v_244)) (or (or ?v_51 ?v_245) ?v_246)) (or (or P30 ?v_385) ?v_248)) (or (or ?v_230 ?v_403) ?v_250)) (or (or ?v_251 ?v_348) ?v_252)) (or (or ?v_253 ?v_302) ?v_24)) (or (or ?v_102 ?v_410) (not ?v_340))) (or (or ?v_200 ?v_256) ?v_160)) (or (or ?v_257 ?v_258) (not P15))) (or (or ?v_259 ?v_234) ?v_359)) (or (or ?v_173 P29) ?v_350)) (or (or ?v_311 ?v_261) ?v_262)) (or (or ?v_131 ?v_116) ?v_263)) (or (or ?v_184 ?v_127) ?v_314)) (or (or ?v_313 (not ?v_200)) ?v_264)) (or (or ?v_24 ?v_363) ?v_126)) (or (or P26 ?v_220) ?v_133)) (or (or ?v_266 ?v_133) ?v_171)) (or (or ?v_194 ?v_205) ?v_193)) (or (or ?v_267 ?v_167) ?v_214)) (or (or P37 ?v_262) ?v_268)) (or (or ?v_100 ?v_132) ?v_269)) (or (or P14 ?v_97) ?v_270)) (or (or P17 ?v_171) ?v_378)) (or (or ?v_271 ?v_272) ?v_273)) (or (or ?v_152 ?v_274) ?v_84)) (or (or ?v_100 ?v_275) ?v_276)) (or (or ?v_277 ?v_277) ?v_278)) (or (or ?v_279 ?v_145) ?v_330)) (or (or (not ?v_289) ?v_103) ?v_275)) (or (or ?v_270 ?v_281) ?v_282)) (or (or ?v_24 ?v_136) ?v_283)) (or (or ?v_278 ?v_284) ?v_163)) (or (or ?v_316 ?v_80) ?v_285)) (or (or ?v_259 P15) ?v_267)) (or (or ?v_306 ?v_376) ?v_239)) (or (or ?v_246 ?v_236) ?v_286)) (or (or ?v_287 ?v_136) ?v_274)) (or (or ?v_277 ?v_119) ?v_288)) (or (or ?v_289 ?v_290) ?v_291)) (or (or ?v_292 ?v_122) ?v_293)) (or (or ?v_294 ?v_129) ?v_286)) (or (or ?v_93 ?v_195) ?v_295)) (or (or ?v_377 ?v_29) ?v_39)) (or (or ?v_267 ?v_176) ?v_142)) (or (or ?v_114 ?v_98) ?v_140)) (or (or (not (= x25 ?v_296)) ?v_297) ?v_346)) (or (or ?v_299 ?v_358) P9)) (or (or ?v_221 ?v_234) ?v_327)) (or (or ?v_102 (not ?v_203)) ?v_134)) (or (or ?v_302 ?v_303) P39)) (or (or ?v_304 ?v_30) ?v_186)) (or (or ?v_277 ?v_259) ?v_29)) (or (or ?v_305 ?v_207) ?v_306)) (or (or ?v_307 ?v_53) ?v_308)) (or (or ?v_179 ?v_309) ?v_310)) (or (or ?v_210 ?v_78) ?v_273)) (or (or ?v_318 ?v_311) (not ?v_132))) (or (or ?v_312 ?v_161) ?v_90)) (or (or ?v_313 ?v_33) (not ?v_314))) (or (or ?v_315 ?v_316) ?v_317)) (or (or ?v_318 ?v_319) ?v_36)) (or (or ?v_320 ?v_46) ?v_45)) (or (or ?v_122 ?v_321) ?v_309)) (or (or ?v_313 ?v_322) ?v_323)) (or (or ?v_324 ?v_237) ?v_325)) (or (or ?v_356 ?v_269) P4)) (or (or ?v_326 ?v_327) ?v_286)) (or (or ?v_326 ?v_344) ?v_329)) (or (or ?v_202 ?v_84) ?v_145)) (or (or ?v_233 ?v_330) ?v_120)) (or (or ?v_380 ?v_290) ?v_384)) (or (or (not ?v_331) ?v_250) ?v_369)) (or (or ?v_332 ?v_197) ?v_136)) (or (or ?v_333 ?v_334) ?v_92)) (or (or ?v_335 ?v_205) ?v_286)) (or (or ?v_295 ?v_23) ?v_268)) (or (or ?v_276 ?v_166) ?v_107)) (or (or ?v_23 ?v_336) ?v_405)) (or (or ?v_420 ?v_43) ?v_337)) (or (or ?v_107 P17) ?v_338)) (or (or ?v_339 ?v_340) ?v_169)) (or (or ?v_142 P14) ?v_91)) (or (or ?v_341 ?v_342) ?v_335)) (or (or ?v_343 ?v_252) ?v_341)) (or (or ?v_361 ?v_36) ?v_341)) (or (or ?v_344 ?v_256) ?v_205)) (or (or ?v_134 ?v_239) ?v_345)) (or (or ?v_224 ?v_34) ?v_345)) (or (or (not ?v_24) ?v_155) ?v_346)) (or (or ?v_347 ?v_348) ?v_340)) (or (or ?v_293 ?v_349) ?v_350)) (or (or ?v_179 ?v_404) ?v_182)) (or (or ?v_160 ?v_336) ?v_352)) (or (or P2 ?v_344) (not P0))) (or (or ?v_46 ?v_36) ?v_249)) (or (or ?v_210 ?v_282) ?v_416)) (or (or ?v_197 ?v_59) ?v_354)) (or (or ?v_352 ?v_355) (< x24 (- 25)))) (or (or ?v_328 ?v_356) ?v_59)) (or (or ?v_250 ?v_397) ?v_244)) (or (or ?v_358 ?v_359) ?v_88)) (or (or ?v_155 (not ?v_150)) ?v_246)) (or (or ?v_360 ?v_261) ?v_181)) (or (or ?v_361 ?v_66) ?v_163)) (or (or ?v_328 ?v_193) ?v_401)) (or (or ?v_291 ?v_325) ?v_285)) (or (or ?v_246 ?v_360) ?v_155)) (or (or ?v_137 P36) ?v_348)) (or (or ?v_277 ?v_97) ?v_131)) (or (or ?v_91 ?v_100) ?v_363)) (or (or ?v_258 ?v_84) (not ?v_45))) (or (or ?v_364 ?v_194) ?v_365)) (or (or ?v_366 ?v_115) ?v_105)) (or (or P6 ?v_367) ?v_368)) (or (or ?v_369 ?v_370) ?v_371)) (or (or ?v_143 ?v_85) ?v_157)) (or (or ?v_382 ?v_181) ?v_254)) (or (or P10 ?v_98) ?v_230)) (or (or ?v_270 ?v_72) ?v_372)) (or (or ?v_373 P12) ?v_374)) (or (or ?v_286 ?v_348) P34)) (or (or ?v_325 ?v_254) ?v_302)) (or (or ?v_375 ?v_150) ?v_151)) (or (or ?v_36 ?v_310) ?v_376)) (or (or ?v_158 (not P2)) ?v_377)) (or (or ?v_378 ?v_358) ?v_183)) (or (or ?v_374 ?v_313) ?v_77)) (or (or ?v_235 P13) ?v_99)) (or (or ?v_379 ?v_361) P8)) (or (or ?v_86 ?v_130) ?v_378)) (or (or ?v_257 ?v_380) ?v_237)) (or (or ?v_364 ?v_347) ?v_183)) (or (or P38 ?v_352) ?v_78)) (or (or (not ?v_381) ?v_276) ?v_293)) (or (or ?v_236 ?v_152) ?v_382)) (or (or ?v_194 ?v_383) ?v_41)) (or (or ?v_49 ?v_279) ?v_384)) (or (or P35 ?v_132) ?v_263)) (or (or ?v_385 ?v_333) ?v_107)) (or (or ?v_186 ?v_400) P11)) (or (or ?v_108 P6) ?v_367)) (or (or ?v_116 ?v_340) ?v_310)) (or (or P39 ?v_66) ?v_234)) (or (or ?v_287 ?v_343) ?v_386)) (or (or ?v_263 ?v_348) ?v_145)) (or (or ?v_395 ?v_236) (not ?v_387))) (or (or ?v_388 ?v_74) ?v_344)) (or (or ?v_419 ?v_228) ?v_21)) (or (or ?v_389 ?v_59) ?v_120)) (or (or ?v_390 (not ?v_391)) ?v_392)) (or (or ?v_154 ?v_130) ?v_259)) (or (or ?v_226 ?v_317) ?v_21)) (or (or ?v_341 ?v_241) ?v_264)) (or (or ?v_393 ?v_267) ?v_150)) (or (or ?v_233 ?v_324) ?v_29)) (or (or ?v_292 ?v_394) ?v_212)) (or (or ?v_120 ?v_322) ?v_395)) (or (or P24 ?v_382) ?v_391)) (or (or P2 ?v_396) P21)) (or (or ?v_313 ?v_226) ?v_232)) (or (or (not ?v_397) ?v_385) ?v_398)) (or (or ?v_223 (not ?v_326)) ?v_209)) (or (or ?v_149 ?v_293) ?v_185)) (or (or ?v_399 ?v_400) ?v_401)) (or (or ?v_150 ?v_402) ?v_275)) (or (or ?v_371 ?v_122) (not P27))) (or (or ?v_402 ?v_338) P24)) (or (or (not ?v_341) ?v_198) ?v_320)) (or (or ?v_244 (not ?v_401)) ?v_403)) (or (or ?v_404 P17) P35)) (or (or P16 ?v_363) ?v_140)) (or (or ?v_228 ?v_156) ?v_405)) (or (or ?v_105 (not ?v_157)) (not ?v_60))) (or (or (not ?v_360) ?v_249) ?v_338)) (or (or ?v_85 P15) ?v_406)) (or (or ?v_373 P10) ?v_262)) (or (or ?v_361 P25) P31)) (or (or ?v_379 ?v_337) ?v_202)) (or (or ?v_45 ?v_372) ?v_407)) (or (or ?v_408 ?v_319) ?v_409)) (or (or ?v_105 P37) ?v_99)) (or (or ?v_82 ?v_94) ?v_317)) (or (or (not ?v_325) ?v_315) ?v_339)) (or (or ?v_140 ?v_391) ?v_291)) (or (or ?v_333 ?v_297) ?v_127)) (or (or ?v_227 ?v_410) ?v_48)) (or (or ?v_281 ?v_122) ?v_124)) (or (or ?v_259 ?v_96) ?v_279)) (or (or ?v_139 ?v_411) ?v_345)) (or (or ?v_406 ?v_372) ?v_252)) (or (or ?v_278 ?v_210) ?v_102)) (or (or ?v_412 ?v_119) ?v_108)) (or (or ?v_354 ?v_413) ?v_220)) (or (or ?v_400 P8) ?v_414)) (or (or ?v_209 (not ?v_329)) ?v_151)) (or (or P9 ?v_293) ?v_97)) (or (or ?v_35 ?v_415) ?v_132)) (or (or P32 (not P28)) ?v_412)) (or (or ?v_374 ?v_276) ?v_288)) (or (or ?v_90 ?v_256) ?v_33)) (or (or ?v_281 ?v_184) P31)) (or (or ?v_24 P1) ?v_306)) (or (or ?v_49 ?v_56) ?v_287)) (or (or ?v_376 ?v_393) P9)) (or (or ?v_302 ?v_158) ?v_376)) (or (or ?v_92 ?v_349) ?v_167)) (or (or P2 (not P18)) ?v_318)) (or (or ?v_416 P14) ?v_132)) (or (or ?v_293 ?v_110) ?v_66)) (or (or ?v_417 ?v_183) ?v_319)) (or (or ?v_167 ?v_152) ?v_85)) (or (or ?v_344 ?v_418) ?v_419)) (or (or P30 ?v_347) ?v_160)) (or (or P5 ?v_227) ?v_90)) (or (or ?v_136 ?v_142) P26)) (or (or (< x11 5) ?v_366) ?v_399)) (or (or ?v_144 ?v_290) ?v_306)) (or (or ?v_274 ?v_139) ?v_45)) (or (or ?v_372 ?v_279) ?v_138)) (or (or ?v_420 ?v_254) ?v_379))))))))))))))))))))))))))))))))))))))))))))))))))))))))))))))))))))))))))))))))))))))))))))
(check-sat)
(exit)
